
  15    0


   0   8 2 3 5 10 11 12 13 14 
   2   2 6 4 
   5   2 9 8 
   9   1 7 
   4   1 6 
  10   1 15
   9   1 15
   4   1 15
   1   1 15
   6   1 15
   4   1 15
   7   1 15
   3   1 15
   4   1 15
   0   0 
